60 61
53 20
22 94
96 44
79 23
77 69
98 3
81 21
21 23
14 95
30 62
14 97
98 122
101 114
24 40
34 94
99 117
45 69
15 60
54 85
34 126
39 131
49 138
37 97
71 74
86 70
40 119
34 128
19 68
3 122
93 173
49 76
70 126
91 101
33 165
91 96
35 131
10 126
67 134
87 110
95 145
64 179
30 103
27 184
89 181
29 133
56 116
53 102
73 136
50 132
67 194
76 158
73 141
43 155
11 136
90 182
9 210
36 204
107 200
62 234
31 235
63 217
88 214
29 225
53 205
46 238
93 219
82 178
15 218
19 222
33 249
23 209
98 191
66 200
75 253
85 192
62 178
41 208
69 250
51 254
59 272
94 210
3 285
25 252
89 238
53 227
64 285
81 232
13 234
84 313
71 289
47 235
25 262
9 309
7 286
62 230
42 266
38 263
46 241
17 272
